(set-logic BV) (define-fun origCir ((n309 Bool) (n308 Bool) (n268 Bool) (n113 Bool) (n118 Bool) (i_17 Bool)) Bool (and (and (xor (xor n118 n113) n309) (xor (or n308 n268) n309)) i_17)) (synth-fun skel ((n309 Bool) (n308 Bool) (n268 Bool) (n113 Bool) (n118 Bool) (i_17 Bool)) Bool) (declare-var n309 Bool) (declare-var n308 Bool) (declare-var n268 Bool) (declare-var n113 Bool) (declare-var n118 Bool) (declare-var i_17 Bool) (constraint (= (origCir n309 n308 n268 n113 n118 i_17) (skel n309 n308 n268 n113 n118 i_17))) (check-synth)
